p tw 98 112
1 2
2 3
11 12
11 50
12 97
13 14
14 15
15 16
16 17
17 18
18 19
18 32
19 20
20 21
3 4
21 22
22 23
22 28
23 24
24 25
25 26
26 27
27 28
28 29
29 30
30 31
4 5
31 32
32 33
33 34
34 35
35 36
36 37
36 49
37 38
38 39
39 40
39 97
40 41
5 6
5 85
41 42
42 43
43 44
43 47
44 45
45 46
46 47
47 48
48 49
50 51
6 7
51 52
52 53
53 54
54 55
54 97
55 56
56 57
57 58
58 59
59 60
59 97
60 61
7 8
7 95
61 62
62 63
63 64
63 83
64 65
65 66
66 67
67 68
68 69
68 80
69 70
70 71
8 9
71 72
72 73
73 74
74 75
75 76
76 77
77 78
78 79
78 80
79 80
80 81
9 13
9 10
81 82
82 83
83 84
84 97
85 86
86 87
86 97
87 88
88 89
89 90
90 91
90 92
10 11
91 92
92 93
93 94
94 97
95 96
96 97
97 98
